p wcnf 2000 200 1
1 1 0
1 2 0
1 3 0
1 4 0
1 5 0
1 6 0
1 7 0
1 8 0
1 9 0
1 10 0
1 11 0
1 12 0
1 1 1 1 1 1 1 2 2 2 2 2 0
1 2 2 2 2 2 2 2 2 2 2 2 0
1 2 2 2 2 3 3 3 3 3 3 3 0
1 3 3 3 3 3 3 3 3 3 3 3 0
1 3 3 3 4 4 4 4 4 4 4 4 0
1 4 4 4 4 4 4 4 4 4 4 4 0
1 5 5 5 5 5 5 5 5 5 5 5 0
1 5 5 5 5 5 5 5 5 5 6 6 0
1 6 6 6 6 6 6 6 6 6 6 6 0
1 7 7 7 7 7 7 7 7 7 7 7 0
1 7 7 7 7 7 7 7 7 8 8 8 0
1 8 8 8 8 8 8 8 8 8 8 8 0
1 8 8 9 9 9 9 9 9 9 9 9 0
1 9 9 9 9 9 9 9 9 10 10 10 0
1 10 10 10 10 10 10 10 10 10 10 10 0
1 10 10 10 10 10 11 11 11 11 11 11 0
1 11 11 11 12 12 12 12 12 12 12 12 0
1 12 12 12 12 12 12 12 12 12 12 12 0
1 12 12 12 12 12 12 12 12 12 12 12 0
1 13 13 13 13 13 13 13 13 13 13 13 0
1 13 13 13 13 13 13 13 13 14 14 14 0
1 14 14 14 14 14 14 14 14 14 14 14 0
1 14 14 14 14 14 14 15 15 15 15 15 0
1 15 15 15 15 15 15 15 15 15 15 15 0
1 15 15 15 15 15 15 15 15 15 15 16 0
1 16 16 16 16 16 16 16 16 16 16 16 0
1 16 16 16 17 17 17 17 17 17 17 17 0
1 17 17 17 17 17 17 18 18 18 18 18 0
1 18 18 18 18 18 18 18 18 18 18 18 0
1 18 18 18 18 18 19 19 19 19 19 19 0
1 19 19 19 19 19 19 19 19 19 20 20 0
1 20 20 20 20 20 20 20 20 20 20 20 0
1 20 20 20 20 20 20 20 20 20 20 20 0
1 20 21 21 21 21 21 21 21 21 21 21 0
1 21 21 21 21 22 22 22 22 22 22 22 0
1 22 22 22 22 22 22 22 22 23 23 23 0
1 23 23 23 23 23 23 23 23 23 23 23 0
1 23 23 23 23 23 23 23 23 23 24 24 0
1 24 24 24 24 24 24 24 24 24 24 24 0
1 24 24 24 24 24 24 24 25 25 25 25 0
1 25 25 25 25 25 25 25 25 25 25 25 0
1 25 25 25 25 26 26 26 26 26 26 26 0
1 26 26 26 26 26 26 26 26 26 26 26 0
1 27 27 27 27 27 27 27 27 27 27 27 0
1 27 27 27 27 27 27 27 27 27 27 27 0
1 27 27 28 28 28 28 28 28 28 28 28 0
1 28 28 28 28 28 28 28 29 29 29 29 0
1 29 29 29 29 29 29 29 29 29 29 30 0
1 30 30 30 30 30 30 30 30 30 30 30 0
1 30 30 30 30 30 30 30 30 31 31 31 0
1 31 31 31 31 31 31 31 31 31 31 31 0
1 31 31 31 31 31 31 32 32 32 32 32 0
1 32 32 32 32 32 32 32 32 32 32 32 0
1 32 32 32 33 33 33 33 33 33 33 33 0
1 33 33 33 33 33 33 33 33 33 33 33 0
1 34 34 34 34 34 34 34 34 34 34 34 0
1 34 34 34 35 35 35 35 35 35 35 35 0
1 35 35 35 35 35 35 35 36 36 36 36 0
1 36 36 36 36 36 36 36 36 36 36 36 0
1 36 36 37 37 37 37 37 37 37 37 37 0
1 37 37 37 37 37 38 38 38 38 38 38 0
1 38 38 38 38 38 38 38 38 38 38 38 0
1 38 38 38 38 38 39 39 39 39 39 39 0
1 39 39 39 39 39 39 40 40 40 40 40 0
1 40 40 40 40 40 40 40 40 40 40 40 0
1 40 40 41 41 41 41 41 41 41 41 41 0
1 41 41 41 41 41 41 41 41 42 42 42 0
1 42 42 42 42 42 42 42 42 42 42 42 0
1 42 42 42 42 42 42 42 43 43 43 43 0
1 43 43 43 43 43 43 43 43 43 43 43 0
1 43 43 43 43 43 44 44 44 44 44 44 0
1 44 44 44 44 44 44 44 44 44 44 44 0
1 44 45 45 45 45 45 45 45 45 45 45 0
1 45 45 45 45 45 45 45 46 46 46 46 0
1 46 46 46 46 46 46 46 46 46 46 47 0
1 47 47 47 47 47 47 47 47 47 47 47 0
1 47 47 47 47 47 47 47 47 48 48 48 0
1 48 48 48 48 48 48 48 48 48 48 48 0
1 49 49 49 49 49 49 49 49 49 49 49 0
1 49 49 49 49 49 49 49 49 49 49 49 0
1 49 49 49 50 50 50 50 50 50 50 50 0
1 50 50 50 50 50 50 50 50 50 50 50 0
1 51 51 51 51 51 51 51 51 51 51 51 0
1 51 51 51 51 51 52 52 52 52 52 52 0
1 52 52 52 52 52 52 52 52 52 53 53 0
1 53 53 53 53 53 53 53 53 53 53 53 0
1 53 53 53 53 53 53 53 54 54 54 54 0
1 54 54 54 54 54 54 54 54 54 54 54 0
1 54 54 54 54 54 55 55 55 55 55 55 0
1 55 55 55 55 55 55 55 55 55 55 55 0
1 55 55 55 55 55 55 55 55 55 56 56 0
1 56 56 56 56 56 56 56 56 56 56 56 0
1 57 57 57 57 57 57 57 57 57 57 57 0
1 57 57 57 57 57 58 58 58 58 58 58 0
1 58 58 58 58 58 58 58 58 58 58 58 0
1 59 59 59 59 59 59 59 59 59 59 59 0
1 59 59 59 59 59 59 59 59 59 59 59 0
1 59 59 59 60 60 60 60 60 60 60 60 0
1 60 60 60 60 60 60 60 60 60 60 61 0
1 61 61 61 61 61 61 61 61 61 61 61 0
1 61 61 61 61 61 61 61 62 62 62 62 0
1 62 62 62 62 62 62 63 63 63 63 63 0
1 63 63 63 63 63 63 63 63 63 63 63 0
1 63 63 64 64 64 64 64 64 64 64 64 0
1 64 64 64 64 64 64 64 64 64 64 64 0
1 64 64 64 65 65 65 65 65 65 65 65 0
1 65 65 65 65 65 65 65 65 65 65 65 0
1 66 66 66 66 66 66 66 66 66 66 66 0
1 66 66 66 66 66 66 66 66 66 66 67 0
1 67 67 67 67 67 67 67 67 67 67 67 0
1 67 67 67 67 67 67 68 68 68 68 68 0
1 68 68 68 68 68 68 68 68 68 68 68 0
1 68 69 69 69 69 69 69 69 69 69 69 0
1 69 69 70 70 70 70 70 70 70 70 70 0
1 70 70 70 70 70 70 70 70 70 71 71 0
1 71 71 71 71 71 71 71 71 71 71 71 0
1 71 71 71 71 71 71 71 71 71 71 71 0
1 72 72 72 72 72 72 72 72 72 72 72 0
1 72 72 72 72 72 72 72 72 72 72 72 0
1 73 73 73 73 73 73 73 73 73 73 73 0
1 73 73 73 73 73 73 73 73 73 73 73 0
1 73 73 74 74 74 74 74 74 74 74 74 0
1 74 74 74 74 74 74 74 75 75 75 75 0
1 75 75 75 75 75 75 75 75 75 76 76 0
1 76 76 76 76 76 76 76 76 76 76 76 0
1 76 76 76 76 76 76 76 76 76 76 76 0
1 77 77 77 77 77 77 77 77 77 77 77 0
1 77 77 77 77 77 77 78 78 78 78 78 0
1 78 78 78 78 78 78 78 78 78 78 79 0
1 79 79 79 79 79 79 79 79 79 79 79 0
1 79 79 79 79 79 79 79 79 79 80 80 0
1 80 80 80 80 80 80 80 80 80 80 80 0
1 80 80 80 80 80 80 80 80 81 81 81 0
1 81 81 81 81 81 81 81 81 81 81 81 0
1 81 81 82 82 82 82 82 82 82 82 82 0
1 82 82 83 83 83 83 83 83 83 83 83 0
1 83 83 83 83 83 84 84 84 84 84 84 0
1 84 84 84 84 84 84 84 84 84 84 84 0
1 84 85 85 85 85 85 85 85 85 85 85 0
1 85 85 85 85 85 86 86 86 86 86 86 0
1 86 86 86 86 86 86 86 86 86 86 86 0
1 87 87 87 87 87 87 87 87 87 87 87 0
1 87 87 87 87 87 87 88 88 88 88 88 0
1 88 88 88 88 88 88 88 88 88 88 88 0
1 89 89 89 89 89 89 89 89 89 89 89 0
1 89 89 89 89 89 89 89 89 89 90 90 0
1 90 90 90 90 90 90 90 90 90 90 90 0
1 90 90 90 90 90 90 90 91 91 91 91 0
1 91 91 91 91 91 91 91 91 91 91 91 0
1 91 91 91 91 92 92 92 92 92 92 92 0
1 92 92 92 92 92 93 93 93 93 93 93 0
1 93 93 93 93 93 93 93 93 93 93 93 0
1 93 93 93 94 94 94 94 94 94 94 94 0
1 94 94 94 94 94 94 94 94 95 95 95 0
1 95 95 95 95 95 95 95 95 95 95 96 0
1 96 96 96 96 96 96 96 96 96 96 96 0
1 96 96 96 96 96 96 96 96 96 97 97 0
1 97 97 97 97 97 97 97 97 97 97 97 0
1 97 97 97 97 97 97 97 97 98 98 98 0
1 98 98 98 98 98 98 98 98 98 98 98 0
1 98 98 98 98 98 98 98 99 99 99 99 0
1 99 99 99 99 99 99 99 99 99 99 99 0
1 99 99 99 99 99 99 99 99 99 99 100 0
1 100 100 100 100 100 100 100 100 100 100 100 0
1 100 100 100 100 100 100 100 100 100 100 100 0
1 100 100 100 100 100 100 100 0
1  0
1 67 90 107 351 355 389 470 476 518 590 604 0
1 664 680 686 751 909 970 1022 1061 1076 1108 1137 0
1 1162 1202 1241 1249 1256 1292 1313 1365 1439 1531 1551 0
1 1612 1634 1714 1812 1890 1954 0
1  0
1 134 155 199 200 329 398 533 669 678 737 753 0
1 827 891 918 948 992 993 1015 1053 1085 1090 1099 0
1 1182 1221 1266 1376 1383 1422 1444 1482 1487 1498 1504 0
1 1814 1861 1938 1981 1991 0
1  0
1 145 169 185 212 423 490 541 763 837 860 876 0
1 941 983 1000 1053 1086 1120 1122 1144 1148 1203 1212 0
1 1307 1323 1324 1374 1411 1419 1586 1607 1754 1791 1792 0
1 1880 1953 0
1  0
1 40 54 85 89 129 152 244 326 327 411 429 0
1 506 653 666 725 740 762 783 809 908 923 986 0
1 1111 1158 1239 1298 1371 1374 1525 1559 1560 1587 1735 0
1  0
1  0
1 73 79 166 179 200 212 219 238 243 324 393 0
1 413 520 562 596 658 709 720 749 810 901 905 0
1 1005 1035 1067 1068 1081 1152 1162 1167 1224 1233 1320 0
1 1713 1732 1873 1964 0
1  0
1 28 102 244 328 338 372 465 466 468 798 806 0
1 848 952 1083 1090 1121 1214 1393 1539 1548 1557 1561 0
1 1588 1611 1666 1781 1825 1905 0
1  0
1 46 78 135 187 196 251 277 279 299 319 331 0
1 372 399 412 511 573 575 593 618 625 777 787 0
1 849 1004 1032 1130 1148 1162 1209 1318 1401 1419 1470 0
1 1638 1666 1674 1756 1795 1799 0
